
Gurobi 9.0.3 (win64) logging started Sat Feb  5 17:52:39 2022

Changed value of parameter LogFile to logs\CRVRP_5-2-7-100_3_2.LOG
   Prev: logs\CRVRP_5-2-7-100_3_1.LOG  Default: 
Changed value of parameter Seed to 622175886
   Prev: 1800700585  Min: 0  Max: 2000000000  Default: 0
Parameter Threads unchanged
   Value: 2  Min: 0  Max: 1024  Default: 0
Parameter TimeLimit unchanged
   Value: 60.0  Min: 0.0  Max: inf  Default: inf
Parameter Symmetry unchanged
   Value: 2  Min: -1  Max: 2  Default: -1
Parameter Cuts unchanged
   Value: 2  Min: -1  Max: 3  Default: -1
Parameter PreDepRow unchanged
   Value: 1  Min: -1  Max: 1  Default: -1
Parameter ScaleFlag unchanged
   Value: 1  Min: -1  Max: 3  Default: -1
Parameter NormAdjust unchanged
   Value: 0  Min: -1  Max: 3  Default: -1
Gurobi Optimizer version 9.0.3 build v9.0.3rc0 (win64)
Optimize a model with 1001 rows, 810 columns and 4006 nonzeros
Model fingerprint: 0x0eed8711
Variable types: 32 continuous, 778 integer (522 binary)
Coefficient statistics:
  Matrix range     [1e+00, 1e+06]
  Objective range  [1e+00, 1e+00]
  Bounds range     [1e+00, 1e+04]
  RHS range        [1e+00, 1e+06]
Presolve removed 617 rows and 515 columns
Presolve time: 0.02s
Presolved: 384 rows, 295 columns, 2048 nonzeros
Variable types: 15 continuous, 280 integer (230 binary)
Found heuristic solution: objective 1870.3317726

Root relaxation: objective 4.231442e+02, 208 iterations, 0.00 seconds

    Nodes    |    Current Node    |     Objective Bounds      |     Work
 Expl Unexpl |  Obj  Depth IntInf | Incumbent    BestBd   Gap | It/Node Time

     0     0  423.14425    0   28 1870.33177  423.14425  77.4%     -    0s
H    0     0                     991.2692665  423.14425  57.3%     -    0s
     0     0  423.14425    0   42  991.26927  423.14425  57.3%     -    0s
H    0     0                     947.1816859  423.14425  55.3%     -    0s
     0     0  423.14425    0   34  947.18169  423.14425  55.3%     -    0s
     0     0  423.14425    0   31  947.18169  423.14425  55.3%     -    0s
     0     0  423.14425    0    4  947.18169  423.14425  55.3%     -    0s
H    0     0                     905.8519854  423.14425  53.3%     -    0s
H    0     0                     821.1839381  423.14425  48.5%     -    0s
     0     0  423.14425    0    4  821.18394  423.14425  48.5%     -    0s
     0     0  423.14425    0   19  821.18394  423.14425  48.5%     -    0s
     0     0  423.14425    0   19  821.18394  423.14425  48.5%     -    0s
H    0     0                     740.5540450  423.14425  42.9%     -    0s
H    0     2                     719.8922838  423.14425  41.2%     -    0s
     0     2  423.14425    0   17  719.89228  423.14425  41.2%     -    0s
H   37    72                     599.0647333  423.14425  29.4%  52.7    0s
*   62    72              39     593.7342415  423.14425  28.7%  35.3    0s
*  101    85              37     576.3990074  423.14425  26.6%  34.6    0s
*  112   101              15     527.9553148  423.14425  19.9%  33.1    0s
*  114   101              13     501.8834949  423.14425  15.7%  32.5    0s
*  281   155              22     498.3783570  423.14425  15.1%  27.9    0s
*  318   143              10     484.9129668  423.14425  12.7%  27.0    0s
*  420   148              23     462.8431965  423.14425  8.58%  24.4    0s
H  562   129                     441.3571560  423.14425  4.13%  24.1    0s
H  658   112                     435.8482335  423.14425  2.91%  23.7    1s

Cutting planes:
  Learned: 5
  Cover: 5
  Implied bound: 38
  Projected implied bound: 3
  MIR: 62
  StrongCG: 2
  Flow cover: 143
  Inf proof: 4
  Zero half: 6
  RLT: 109
  Relax-and-lift: 40

Explored 889 nodes (22627 simplex iterations) in 1.42 seconds
Thread count was 2 (of 8 available processors)

Solution count 10: 435.848 441.357 462.843 ... 599.065

Optimal solution found (tolerance 1.00e-04)
Best objective 4.358482335467e+02, best bound 4.358482335467e+02, gap 0.0000%
Discarded solution information
